<?xml version = "1.0" encoding="UTF-8" standalone="yes"?>
<CPLEXSolution version="1.2">
 <header
   problemName="basic_model1_4_3.lp"
   solutionName="incumbent"
   solutionIndex="-1"
   objectiveValue="52.981260722763849"
   solutionTypeValue="3"
   solutionTypeString="primal"
   solutionStatusValue="102"
   solutionStatusString="integer optimal, tolerance"
   solutionMethodString="mip"
   primalFeasible="1"
   dualFeasible="0"
   MIPNodes="31149"
   MIPIterations="335673"
   writeLevel="1"/>
 <quality
   epInt="1.0000000000000001e-05"
   epRHS="9.9999999999999995e-07"
   maxIntInfeas="0"
   maxPrimalInfeas="3.1086244689504383e-15"
   maxX="11.387154322892426"
   maxSlack="329.661982495122"/>
 <linearConstraints>
  <constraint name="c1" index="0" slack="4.4408920985006262e-16"/>
  <constraint name="c2" index="1" slack="1.9667407353965294"/>
  <constraint name="c3" index="2" slack="0"/>
  <constraint name="c4" index="3" slack="0"/>
  <constraint name="c5" index="4" slack="0"/>
  <constraint name="c6" index="5" slack="4.2013403339336435"/>
  <constraint name="c7" index="6" slack="0"/>
  <constraint name="c8" index="7" slack="0"/>
  <constraint name="c9" index="8" slack="1.7763568394002505e-15"/>
  <constraint name="c10" index="9" slack="1.7763568394002505e-15"/>
  <constraint name="c11" index="10" slack="-34.161455851823128"/>
  <constraint name="c12" index="11" slack="11.387147206038273"/>
  <constraint name="c13" index="12" slack="0"/>
  <constraint name="c14" index="13" slack="0.70349190012631624"/>
  <constraint name="c15" index="14" slack="0"/>
  <constraint name="c16" index="15" slack="0"/>
  <constraint name="c17" index="16" slack="-0.69414819268468353"/>
  <constraint name="c18" index="17" slack="0"/>
  <constraint name="c19" index="18" slack="0"/>
  <constraint name="c20" index="19" slack="0"/>
  <constraint name="c21" index="20" slack="0"/>
  <constraint name="c22" index="21" slack="6.1922538243611385"/>
  <constraint name="c23" index="22" slack="0"/>
  <constraint name="c24" index="23" slack="0"/>
  <constraint name="c25" index="24" slack="-1.7763568394002505e-15"/>
  <constraint name="c26" index="25" slack="-1.7763568394002505e-15"/>
  <constraint name="c27" index="26" slack="0"/>
  <constraint name="c28" index="27" slack="0"/>
  <constraint name="c29" index="28" slack="3.1086244689504383e-15"/>
  <constraint name="c30" index="29" slack="3.1086244689504383e-15"/>
  <constraint name="c31" index="30" slack="0"/>
  <constraint name="c32" index="31" slack="0"/>
  <constraint name="c33" index="32" slack="-3.5527136788005009e-15"/>
  <constraint name="c34" index="33" slack="6.7208145562439441"/>
  <constraint name="c35" index="34" slack="0"/>
  <constraint name="c36" index="35" slack="0"/>
  <constraint name="c37" index="36" slack="-0.44776054278466315"/>
  <constraint name="c38" index="37" slack="0"/>
  <constraint name="c39" index="38" slack="0"/>
  <constraint name="c40" index="39" slack="0"/>
  <constraint name="c41" index="40" slack="-10.720370068481877"/>
  <constraint name="c42" index="41" slack="8.8817841970012523e-16"/>
  <constraint name="c43" index="42" slack="0"/>
  <constraint name="c44" index="43" slack="0"/>
  <constraint name="c45" index="44" slack="0"/>
  <constraint name="c46" index="45" slack="8.7302515144216333"/>
  <constraint name="c47" index="46" slack="0"/>
  <constraint name="c48" index="47" slack="0"/>
  <constraint name="c49" index="48" slack="1.7763568394002505e-15"/>
  <constraint name="c50" index="49" slack="1.7763568394002505e-15"/>
  <constraint name="c51" index="50" slack="-13.486263182947219"/>
  <constraint name="c52" index="51" slack="32.06233987491418"/>
  <constraint name="c53" index="52" slack="-5.9979971424353424"/>
  <constraint name="c54" index="53" slack="-9.7144514654701197e-17"/>
  <constraint name="c55" index="54" slack="0"/>
  <constraint name="c56" index="55" slack="0"/>
  <constraint name="c57" index="56" slack="-8.8817841970012523e-16"/>
  <constraint name="c58" index="57" slack="-8.8817841970012523e-16"/>
  <constraint name="c59" index="58" slack="0"/>
  <constraint name="c60" index="59" slack="0"/>
  <constraint name="c61" index="60" slack="8.8817841970012523e-16"/>
  <constraint name="c62" index="61" slack="1.4668485952919885"/>
  <constraint name="c63" index="62" slack="0"/>
  <constraint name="c64" index="63" slack="0"/>
  <constraint name="c65" index="64" slack="1.7763568394002505e-15"/>
  <constraint name="c66" index="65" slack="16.891234042403489"/>
  <constraint name="c67" index="66" slack="0"/>
  <constraint name="c68" index="67" slack="0"/>
  <constraint name="c69" index="68" slack="-15.528921174775043"/>
  <constraint name="c70" index="69" slack="-1.609823385706477e-15"/>
  <constraint name="c71" index="70" slack="0"/>
  <constraint name="c72" index="71" slack="0"/>
  <constraint name="c73" index="72" slack="-3.5749762991312259"/>
  <constraint name="c74" index="73" slack="2.2204460492503131e-16"/>
  <constraint name="c75" index="74" slack="0"/>
  <constraint name="c76" index="75" slack="0"/>
  <constraint name="c77" index="76" slack="-1.9345172995055162"/>
  <constraint name="c78" index="77" slack="0"/>
  <constraint name="c79" index="78" slack="0"/>
  <constraint name="c80" index="79" slack="0"/>
  <constraint name="c81" index="80" slack="-4.4408920985006262e-16"/>
  <constraint name="c82" index="81" slack="5.6117384469318061"/>
  <constraint name="c83" index="82" slack="0"/>
  <constraint name="c84" index="83" slack="0"/>
  <constraint name="c85" index="84" slack="-7.2164496600635175e-16"/>
  <constraint name="c86" index="85" slack="-7.2164496600635175e-16"/>
  <constraint name="c87" index="86" slack="0"/>
  <constraint name="c88" index="87" slack="0"/>
  <constraint name="c89" index="88" slack="0"/>
  <constraint name="c90" index="89" slack="2.4655560537310732"/>
  <constraint name="c91" index="90" slack="0"/>
  <constraint name="c92" index="91" slack="0"/>
  <constraint name="c93" index="92" slack="-1.0894766331857539"/>
  <constraint name="c94" index="93" slack="0"/>
  <constraint name="c95" index="94" slack="0"/>
  <constraint name="c96" index="95" slack="0"/>
  <constraint name="c97" index="96" slack="-1.7763568394002505e-15"/>
  <constraint name="c98" index="97" slack="-1.7763568394002505e-15"/>
  <constraint name="c99" index="98" slack="0"/>
  <constraint name="c100" index="99" slack="0"/>
  <constraint name="c101" index="100" slack="1.7763568394002505e-15"/>
  <constraint name="c102" index="101" slack="1.7763568394002505e-15"/>
  <constraint name="c103" index="102" slack="-13.798773298517231"/>
  <constraint name="c104" index="103" slack="31.749829759344166"/>
  <constraint name="c105" index="104" slack="-6.9143249135204661"/>
  <constraint name="c106" index="105" slack="-2.7755575615628914e-16"/>
  <constraint name="c107" index="106" slack="0"/>
  <constraint name="c108" index="107" slack="0"/>
  <constraint name="c109" index="108" slack="0"/>
  <constraint name="c110" index="109" slack="0.91732666911533656"/>
  <constraint name="c111" index="110" slack="0"/>
  <constraint name="c112" index="111" slack="0"/>
  <constraint name="c113" index="112" slack="-2.6955238002221633"/>
  <constraint name="c114" index="113" slack="4.4408920985006262e-16"/>
  <constraint name="c115" index="114" slack="0"/>
  <constraint name="c116" index="115" slack="0"/>
  <constraint name="c117" index="116" slack="-0.4969087068440623"/>
  <constraint name="c118" index="117" slack="0"/>
  <constraint name="c119" index="118" slack="0"/>
  <constraint name="c120" index="119" slack="0"/>
  <constraint name="c121" index="120" slack="0"/>
  <constraint name="c122" index="121" slack="0"/>
  <constraint name="c123" index="122" slack="0"/>
  <constraint name="c124" index="123" slack="0"/>
  <constraint name="c125" index="124" slack="-147.83799451376106"/>
  <constraint name="c126" index="125" slack="146.35962039445695"/>
  <constraint name="c127" index="126" slack="0"/>
  <constraint name="c128" index="127" slack="0"/>
  <constraint name="c129" index="128" slack="-329.661982495122"/>
  <constraint name="c130" index="129" slack="326.36537222213303"/>
  <constraint name="c131" index="130" slack="-221.55010966118735"/>
  <constraint name="c132" index="131" slack="223.78799911681264"/>
  <constraint name="c133" index="132" slack="-63.158901330983717"/>
  <constraint name="c134" index="133" slack="62.527312102758785"/>
  <constraint name="c135" index="134" slack="0"/>
  <constraint name="c136" index="135" slack="0"/>
  <constraint name="c137" index="136" slack="0"/>
  <constraint name="c138" index="137" slack="0"/>
  <constraint name="c139" index="138" slack="0"/>
  <constraint name="c140" index="139" slack="0"/>
 </linearConstraints>
 <variables>
  <variable name="q(0)" index="0" value="0.98337036769826458"/>
  <variable name="q(1)" index="1" value="2.1006701669668222"/>
  <variable name="q(2)" index="2" value="0"/>
  <variable name="q(3)" index="3" value="0.35174595006315812"/>
  <variable name="q(4)" index="4" value="0.34707409634234176"/>
  <variable name="q(5)" index="5" value="3.0961269121805688"/>
  <variable name="q(6)" index="6" value="0"/>
  <variable name="q(7)" index="7" value="0"/>
  <variable name="q(8)" index="8" value="3.3604072781219725"/>
  <variable name="q(9)" index="9" value="0.22388027139233158"/>
  <variable name="q(10)" index="10" value="5.3601850342409385"/>
  <variable name="q(11)" index="11" value="4.3651257572108157"/>
  <variable name="q(12)" index="12" value="0"/>
  <variable name="q(13)" index="13" value="2.9989985712176712"/>
  <variable name="q(14)" index="14" value="0"/>
  <variable name="q(15)" index="15" value="0.73342429764599393"/>
  <variable name="q(16)" index="16" value="8.4456170212017447"/>
  <variable name="q(17)" index="17" value="7.7644605873875197"/>
  <variable name="q(18)" index="18" value="1.787488149565613"/>
  <variable name="q(19)" index="19" value="0.96725864975275822"/>
  <variable name="q(20)" index="20" value="2.8058692234659035"/>
  <variable name="q(21)" index="21" value="0"/>
  <variable name="q(22)" index="22" value="1.2327780268655366"/>
  <variable name="q(23)" index="23" value="0.54473831659287719"/>
  <variable name="q(24)" index="24" value="0"/>
  <variable name="q(25)" index="25" value="0"/>
  <variable name="q(26)" index="26" value="3.4571624567602335"/>
  <variable name="q(27)" index="27" value="0.45866333455766828"/>
  <variable name="q(28)" index="28" value="1.3477619001110819"/>
  <variable name="q(29)" index="29" value="0.24845435342203115"/>
  <variable name="a(0)" index="30" value="0"/>
  <variable name="a(1)" index="31" value="0"/>
  <variable name="a(2)" index="32" value="1.4783770420660454"/>
  <variable name="a(3)" index="33" value="0"/>
  <variable name="a(4)" index="34" value="3.2966150825549914"/>
  <variable name="a(5)" index="35" value="-2.2378847235786434"/>
  <variable name="a(6)" index="36" value="0.63158911184081423"/>
  <variable name="a(7)" index="37" value="0"/>
  <variable name="a(8)" index="38" value="0"/>
  <variable name="z" index="39" value="-2.2347628096322114"/>
  <variable name="t(0)" index="40" value="0"/>
  <variable name="s(0)" index="41" value="1"/>
  <variable name="t(1)" index="42" value="0"/>
  <variable name="s(1)" index="43" value="1"/>
  <variable name="t(2)" index="44" value="11.387154322892426"/>
  <variable name="s(2)" index="45" value="0"/>
  <variable name="t(3)" index="46" value="0"/>
  <variable name="s(3)" index="47" value="1"/>
  <variable name="t(4)" index="48" value="0"/>
  <variable name="s(4)" index="49" value="1"/>
  <variable name="t(5)" index="50" value="0"/>
  <variable name="s(5)" index="51" value="1"/>
  <variable name="t(6)" index="52" value="0"/>
  <variable name="s(6)" index="53" value="1"/>
  <variable name="t(7)" index="54" value="0"/>
  <variable name="s(7)" index="55" value="1"/>
  <variable name="t(8)" index="56" value="0"/>
  <variable name="s(8)" index="57" value="1"/>
  <variable name="t(9)" index="58" value="0"/>
  <variable name="s(9)" index="59" value="1"/>
  <variable name="t(10)" index="60" value="0"/>
  <variable name="s(10)" index="61" value="1"/>
  <variable name="t(11)" index="62" value="0"/>
  <variable name="s(11)" index="63" value="1"/>
  <variable name="t(12)" index="64" value="-9.2880383459834803"/>
  <variable name="s(12)" index="65" value="0"/>
  <variable name="t(13)" index="66" value="0"/>
  <variable name="s(13)" index="67" value="1"/>
  <variable name="t(14)" index="68" value="0"/>
  <variable name="s(14)" index="69" value="1"/>
  <variable name="t(15)" index="70" value="0"/>
  <variable name="s(15)" index="71" value="1"/>
  <variable name="t(16)" index="72" value="0"/>
  <variable name="s(16)" index="73" value="1"/>
  <variable name="t(17)" index="74" value="0"/>
  <variable name="s(17)" index="75" value="1"/>
  <variable name="t(18)" index="76" value="0"/>
  <variable name="s(18)" index="77" value="1"/>
  <variable name="t(19)" index="78" value="0"/>
  <variable name="s(19)" index="79" value="1"/>
  <variable name="t(20)" index="80" value="0"/>
  <variable name="s(20)" index="81" value="1"/>
  <variable name="t(21)" index="82" value="0"/>
  <variable name="s(21)" index="83" value="1"/>
  <variable name="t(22)" index="84" value="0"/>
  <variable name="s(22)" index="85" value="1"/>
  <variable name="t(23)" index="86" value="0"/>
  <variable name="s(23)" index="87" value="1"/>
  <variable name="t(24)" index="88" value="0"/>
  <variable name="s(24)" index="89" value="1"/>
  <variable name="t(25)" index="90" value="-8.9755282304134685"/>
  <variable name="s(25)" index="91" value="0"/>
  <variable name="t(26)" index="92" value="0"/>
  <variable name="s(26)" index="93" value="1"/>
  <variable name="t(27)" index="94" value="0"/>
  <variable name="s(27)" index="95" value="1"/>
  <variable name="t(28)" index="96" value="0"/>
  <variable name="s(28)" index="97" value="1"/>
  <variable name="t(29)" index="98" value="0"/>
  <variable name="s(29)" index="99" value="1"/>
  <variable name="f(0)" index="100" value="0"/>
  <variable name="f(1)" index="101" value="0"/>
  <variable name="f(2)" index="102" value="1"/>
  <variable name="f(3)" index="103" value="0"/>
  <variable name="f(4)" index="104" value="1"/>
  <variable name="f(5)" index="105" value="1"/>
  <variable name="f(6)" index="106" value="1"/>
  <variable name="f(7)" index="107" value="0"/>
  <variable name="f(8)" index="108" value="0"/>
 </variables>
 <objectiveValues>
  <objective index="0" name="obj1" value="52.981260722763849"/>
 </objectiveValues>
</CPLEXSolution>
